data/benchmarks/bayes/90-17-7-q.cnf
p cnf 1377 1213
c weights 0.19634 0.80366 1 1 1 1 1 1 1 1 1 1 1 1 1 1 1 1 1 1 1 1 1 1 1 1 1 1 1 1 1 1 1 1 1 1 1 1 1 1 1 1 1 1 1 1 1 1 1 1 1 1 1 1 1 1 1 1 1 1 1 1 1 1 1 1 1 1 1 1 1 1 1 1 1 1 1 1 1 1 1 1 1 1 1 1 1 1 1 1 1 1 1 1 1 1 1 1 1 1 1 1 1 1 1 1 1 1 1 1 1 1 1 1 1 1 1 1 1 1 1 1 1 1 1 1 1 1 1 1 1 1 1 1 1 1 1 1 1 1 1 1 1 1 1 1 1 1 1 1 1 1 1 1 1 1 1 1 1 1 1 1 1 1 1 1 1 1 1 1 1 1 1 1 1 1 1 1 1 1 1 1 1 1 1 1 1 1 1 1 1 1 1 1 1 1 1 1 1 1 1 1 1 1 1 1 1 1 1 1 1 1 1 1 1 1 1 1 1 1 1 1 1 1 1 1 1 1 1 1 1 1 1 1 1 1 1 1 1 1 1 1 1 1 1 1 1 1 1 1 1 1 1 1 1 1 1 1 1 1 1 1 1 1 1 1 1 1 1 1 1 1 1 1 1 1 1 1 1 1 1 1 1 1 1 1 1 1 1 1 1 1 1 1 1 1 1 1 1 1 1 1 1 1 1 1 1 1 1 1 1 1 1 1 1 1 1 1 1 1 1 1 1 1 1 1 1 1 1 1 1 1 1 1 1 1 1 1 1 1 1 1 1 1 1 1 1 1 1 1 1 1 1 1 1 1 1 1 1 1 1 1 1 1 1 1 1 1 1 1 1 1 1 1 1 1 1 1 1 1 1 1 1 1 1 1 1 1 1 1 1 1 1 1 1 1 1 1 1 1 1 1 1 1 1 1 1 1 1 1 1 1 1 1 1 1 1 1 1 1 1 1 1 1 1 1 1 1 1 1 1 1 1 1 1 1 1 1 1 1 1 1 1 1 1 1 1 1 1 1 1 1 1 1 1 1 1 1 1 1 1 1 1 1 1 1 1 1 1 1 1 1 1 1 1 1 1 1 1 1 1 1 1 1 1 1 1 1 1 1 1 1 1 1 1 1 1 1 1 1 1 1 1 1 1 1 1 1 1 1 1 1 1 1 1 1 1 1 1 1 1 1 1 1 1 1 1 1 1 1 1 1 1 1 1 1 1 1 1 1 1 1 1 1 1 1 1 1 1 1 1 1 1 1 1 1 1 1 1 1 1 1 1 1 1 1 1 1 1 1 1 1 1 1 1 1 1 1 0.5 0.5 0.5 0.5 0.880289 0.11971100000000001 0.592934 0.40706600000000004 0.5 0.5 0.5 0.5 0.5 0.5 0.5 0.5 0.5 0.5 0.5 0.5 0.5 0.5 0.5 0.5 0.5 0.5 0.5 0.5 0.5 0.5 0.5 0.5 0.5 0.5 0.5 0.5 0.5 0.5 0.5 0.5 0.0563759 0.9436241 0.101551 0.898449 0.5 0.5 0.5 0.5 0.5 0.5 0.5 0.5 0.5 0.5 0.5 0.5 0.5 0.5 0.5 0.5 0.5 0.5 0.5 0.5 0.5 0.5 0.5 0.5 0.5 0.5 0.5 0.5 0.5 0.5 0.5 0.5 0.5 0.5 0.5 0.5 0.5 0.5 0.5 0.5 0.5 0.5 0.5 0.5 0.5 0.5 0.5 0.5 0.5 0.5 0.5 0.5 0.5 0.5 0.5 0.5 0.5 0.5 0.5 0.5 0.5 0.5 0.5 0.5 0.76401 0.23599000000000003 0.580887 0.41911299999999996 0.0481728 0.9518272 0.588776 0.41122400000000003 0.5 0.5 0.5 0.5 0.5 0.5 0.5 0.5 0.5 0.5 0.5 0.5 0.5 0.5 0.5 0.5 0.5 0.5 0.5 0.5 0.5 0.5 0.5 0.5 0.5 0.5 0.5 0.5 0.5 0.5 0.5 0.5 0.5 0.5 0.5 0.5 0.5 0.5 0.5 0.5 0.5 0.5 0.5 0.5 0.5 0.5 0.5 0.5 0.5 0.5 0.5 0.5 0.5 0.5 0.5 0.5 0.5 0.5 0.5 0.5 0.5 0.5 0.5 0.5 0.37224 0.62776 0.435753 0.5642469999999999 0.503821 0.49617900000000004 0.967257 0.03274299999999997 0.5 0.5 0.5 0.5 0.5 0.5 0.5 0.5 0.5 0.5 0.5 0.5 0.5 0.5 0.5 0.5 0.5 0.5 0.5 0.5 0.5 0.5 0.5 0.5 0.5 0.5 0.5 0.5 0.5 0.5 0.5 0.5 0.5 0.5 0.5 0.5 0.5 0.5 0.5 0.5 0.5 0.5 0.5 0.5 0.5 0.5 0.5 0.5 0.5 0.5 0.5 0.5 0.5 0.5 0.5 0.5 0.5 0.5 0.5 0.5 0.5 0.5 0.5 0.5 0.5 0.5 0.5 0.5 0.5 0.5 0.5 0.5 0.5 0.5 0.5 0.5 0.5 0.5 0.5 0.5 0.5 0.5 0.5 0.5 0.5 0.5 0.5 0.5 0.5 0.5 0.5 0.5 0.5 0.5 0.5 0.5 0.5 0.5 0.5 0.5 0.5 0.5 0.5 0.5 0.5 0.5 0.5 0.5 0.5 0.5 0.5 0.5 0.5 0.5 0.5 0.5 0.5 0.5 0.5 0.5 0.5 0.5 0.5 0.5 0.5 0.5 0.5 0.5 0.5 0.5 0.5 0.5 0.5 0.5 0.5 0.5 0.5 0.5 0.5 0.5 0.5 0.5 0.5 0.5 0.5 0.5 0.5 0.5 0.5 0.5 0.5 0.5 0.5 0.5 0.5 0.5 0.5 0.5 0.5 0.5 0.5 0.5 0.5 0.5 0.5 0.5 0.5 0.5 0.5 0.5 0.5 0.5 0.5 0.5 0.5 0.5 0.5 0.5 0.5 0.5 0.5 0.5 0.5 0.5 0.599039 0.400961 0.953161 0.046838999999999964 0.7445 0.25549999999999995 0.620925 0.37907500000000005 0.5 0.5 0.5 0.5 0.5 0.5 0.5 0.5 0.278747 0.7212529999999999 0.202799 0.797201 0.0968176 0.9031823999999999 0.257123 0.742877 0.5 0.5 0.5 0.5 0.5 0.5 0.5 0.5 0.5 0.5 0.5 0.5 0.5 0.5 0.5 0.5 0.5 0.5 0.5 0.5 0.5 0.5 0.5 0.5 0.5 0.5 0.5 0.5 0.5 0.5 0.5 0.5 0.5 0.5 0.5 0.5 0.5 0.5 0.5 0.5 0.5 0.5 0.5 0.5 0.5 0.5 0.5 0.5 0.5 0.5 0.5 0.5 0.5 0.5 0.5 0.5 0.5 0.5 0.5 0.5 0.5 0.5 0.5 0.5 0.5 0.5 0.5 0.5 0.5 0.5 0.5 0.5 0.5 0.5 0.5 0.5 0.5 0.5 0.5 0.5 0.5 0.5 0.5 0.5 0.5 0.5 0.5 0.5 0.5 0.5 0.5 0.5 0.5 0.5 0.5 0.5 0.5 0.5 0.5 0.5 0.5 0.5 0.5 0.5 0.5 0.5 0.5 0.5 0.5 0.5 0.5 0.5 0.5 0.5 0.5 0.5 0.5 0.5 0.5 0.5 0.5 0.5 0.5 0.5 0.5 0.5 0.5 0.5 0.5 0.5 0.5 0.5 0.5 0.5 0.5 0.5 0.5 0.5 0.5 0.5 0.5 0.5 0.5 0.5 0.5 0.5 0.5 0.5 0.5 0.5 0.5 0.5 0.5 0.5 0.5 0.5 0.5 0.5 0.5 0.5 0.5 0.5 0.5 0.5 0.5 0.5 0.5 0.5 0.5 0.5 0.5 0.5 0.5 0.5 0.5 0.5 0.5 0.5 0.5 0.5 0.5 0.5 0.5 0.5 0.5 0.5 0.5 0.5 0.5 0.5 0.5 0.5 0.5 0.5 0.5 0.5 0.5 0.5 0.5 0.5 0.5 0.5 0.5 0.5 0.5 0.5 0.5 0.5 0.5 0.5 0.5 0.5 0.5 0.5 0.5 0.5 0.5 0.5 0.5 0.5 0.5 0.5 0.5 0.5 0.5 0.5 0.5 0.5 0.5 0.5 0.5 0.5 0.5 0.5 0.5 0.5 0.5 0.5 0.5 0.5 0.5 0.5 0.5 0.5 0.5 0.5 0.5 0.5 0.5 0.5 0.5 0.5 0.5 0.5 0.5 0.5 0.5 0.5 0.5 0.5 0.5 0.5 0.5 0.5 0.824054 0.17594600000000005 0.636411 0.36358900000000005 0.929858 0.07014200000000004 0.380934 0.619066 0.80894 0.19106 0.773849 0.226151 0.113661 0.886339 0.607964 0.39203600000000005 0.945951 0.054049000000000014 0.668295 0.331705 0.636979 0.36302100000000004 0.700704 0.299296 0.5 0.5 0.5 0.5 0.5 0.5 0.5 0.5 0.5 0.5 0.5 0.5 0.5 0.5 0.5 0.5 0.5 0.5 0.5 0.5 0.5 0.5 0.5 0.5 0.5 0.5 0.5 0.5 0.5 0.5 0.5 0.5 0.5 0.5 0.5 0.5 0.5 0.5 0.5 0.5 0.5 0.5 0.5 0.5 0.5 0.5 0.5 0.5 0.5 0.5 0.5 0.5 0.5 0.5 0.5 0.5 0.5 0.5 0.5 0.5 0.5 0.5 0.5 0.5 0.5 0.5 0.5 0.5 0.5 0.5 0.5 0.5 0.5 0.5 0.5 0.5 0.5 0.5 0.5 0.5 0.5 0.5 0.5 0.5 0.5 0.5 0.5 0.5 0.5 0.5 0.5 0.5 0.5 0.5 0.5 0.5 0.5 0.5 0.5 0.5 0.5 0.5 0.5 0.5 0.5 0.5 0.5 0.5 0.5 0.5 0.5 0.5 0.5 0.5 0.5 0.5 0.5 0.5 0.5 0.5 0.5 0.5 0.5 0.5 0.5 0.5 0.5 0.5 0.5 0.5 0.5 0.5 0.5 0.5 0.5 0.5 0.5 0.5 0.5 0.5 0.5 0.5 0.5 0.5 0.5 0.5 0.5 0.5 0.5 0.5 0.5 0.5 0.5 0.5 0.5 0.5 0.929163 0.07083700000000004 0.00705219 0.99294781 0.501714 0.498286 0.663131 0.336869 0.5 0.5 0.5 0.5 0.5 0.5 0.5 0.5 0.5 0.5 0.5 0.5 0.5 0.5 0.5 0.5 0.5 0.5 0.5 0.5 0.5 0.5 0.5 0.5 0.5 0.5 0.5 0.5 0.5 0.5 0.5 0.5 0.5 0.5 0.5 0.5 0.5 0.5 0.5 0.5 0.5 0.5 0.5 0.5 0.5 0.5 0.5 0.5 0.5 0.5 0.5 0.5 0.359223 0.6407769999999999 0.802058 0.19794199999999995 0.604431 0.39556899999999995 0.528211 0.471789 0.5 0.5 0.5 0.5 0.5 0.5 0.5 0.5 0.5 0.5 0.5 0.5 0.5 0.5 0.5 0.5 0.5 0.5 0.5 0.5 0.5 0.5 0.5 0.5 0.5 0.5 0.5 0.5 0.5 0.5 0.5 0.5 0.5 0.5 0.5 0.5 0.5 0.5 0.5 0.5 0.5 0.5 0.5 0.5 0.5 0.5 0.5 0.5 0.496257 0.503743 0.684664 0.31533599999999995 0.593928 0.406072 0.318588 0.681412 0.5 0.5 0.5 0.5 0.5 0.5 0.5 0.5 0.5 0.5 0.5 0.5 0.5 0.5 0.5 0.5 0.5 0.5 0.5 0.5 0.5 0.5 0.5 0.5 0.5 0.5 0.5 0.5 0.5 0.5 0.5 0.5 0.5 0.5 0.5 0.5 0.5 0.5 0.5 0.5 0.5 0.5 0.5 0.5 0.5 0.5 0.5 0.5 0.5 0.5 0.5 0.5 0.5 0.5 0.5 0.5 0.5 0.5 0.5 0.5 0.117425 0.882575 0.606847 0.393153 0.782472 0.21752800000000005 0.274409 0.725591 0.5 0.5 0.5 0.5 0.5 0.5 0.5 0.5 0.5 0.5 0.5 0.5 0.5 0.5 0.5 0.5 0.5 0.5 0.5 0.5 0.5 0.5 0.5 0.5 0.5 0.5 0.5 0.5 0.5 0.5 0.5 0.5 0.782194 0.21780600000000006 0.0917908 0.9082091999999999 0.597999 0.40200100000000005 0.0463637 0.9536363 0.5 0.5 0.5 0.5 0.5 0.5 0.5 0.5 0.5 0.5 0.5 0.5 0.5 0.5 0.5 0.5 0.5 0.5 0.5 0.5 0.5 0.5 0.5 0.5 0.5 0.5 0.5 0.5 0.5 0.5 0.5 0.5 0.5 0.5 0.5 0.5 0.5 0.5 0.5 0.5 0.5 0.5 0.5 0.5 0.5 0.5 0.5 0.5 0.5 0.5 0.5 0.5 0.5 0.5 0.5 0.5 0.5 0.5 0.5 0.5 0.5 0.5 0.5 0.5 0.5 0.5 0.5 0.5 0.5 0.5 0.5 0.5 0.5 0.5 0.5 0.5 0.5 0.5 0.5 0.5 0.5 0.5 0.5 0.5 0.5 0.5 0.5 0.5 0.5 0.5 0.5 0.5 0.5 0.5 0.5 0.5 0.5 0.5 0.5 0.5 0.5 0.5 0.5 0.5 0.5 0.5 0.5 0.5 0.5 0.5 0.5 0.5 0.5 0.5 0.5 0.5 0.495709 0.504291 0.350682 0.6493180000000001 0.790055 0.20994500000000005 0.195244 0.804756 0.5 0.5 0.5 0.5 0.5 0.5 0.5 0.5 0.5 0.5 0.5 0.5 0.5 0.5 0.5 0.5 0.973331 0.026669000000000054 0.998954 0.0010459999999999914 0.185132 0.814868 0.83879 0.16120999999999996 0.5 0.5 0.5 0.5 0.5 0.5 0.5 0.5 0.5 0.5 0.5 0.5 0.5 0.5 0.5 0.5 0.5 0.5 0.5 0.5 0.5 0.5 0.5 0.5 0.5 0.5 0.5 0.5 0.5 0.5 0.5 0.5 0.5 0.5 0.5 0.5 0.5 0.5 0.5 0.5 0.5 0.5 0.5 0.5 0.5 0.5 0.5 0.5 0.5 0.5 0.5 0.5 0.5 0.5 0.5 0.5 0.5 0.5 0.5 0.5 0.5 0.5 0.5 0.5 0.5 0.5 0.5 0.5 0.5 0.5 0.5 0.5 0.5 0.5 0.5 0.5 0.5 0.5 0.5 0.5 0.5 0.5 0.5 0.5 0.5 0.5 0.5 0.5 0.5 0.5 0.5 0.5 0.5 0.5 0.5 0.5 0.5 0.5 0.5 0.5 0.5 0.5 0.5 0.5 0.5 0.5 0.5 0.5 0.5 0.5 0.5 0.5 0.5 0.5 0.5 0.5 0.090983 0.909017 0.203876 0.796124 0.636342 0.36365800000000004 0.588623 0.411377 0.5 0.5 0.5 0.5 0.5 0.5 0.5 0.5 0.5 0.5 0.5 0.5 0.5 0.5 0.5 0.5 0.5 0.5 0.5 0.5 0.5 0.5 0.5 0.5 0.5 0.5 0.5 0.5 0.5 0.5 0.5 0.5 0.5 0.5 0.5 0.5 0.5 0.5 0.5 0.5 0.5 0.5 0.5 0.5 0.5 0.5 0.5 0.5 0.5 0.5 0.5 0.5 0.500706 0.499294 0.853622 0.146378 0.601801 0.39819899999999997 0.68328 0.31672 0.918751 0.08124900000000002 0.70422 0.29578000000000004 0.35652 0.64348 0.401694 0.598306 0.5 0.5 0.5 0.5 0.5 0.5 0.5 0.5 0.5 0.5 0.5 0.5 0.5 0.5 0.5 0.5 0.5 0.5 0.5 0.5 0.5 0.5 0.5 0.5 0.5 0.5 0.5 0.5 0.5 0.5 0.5 0.5 0.5 0.5 0.5 0.5 0.5 0.5 0.5 0.5 0.16932 0.83068 0.166215 0.833785 0.295957 0.704043 0.571014 0.428986 0.5 0.5 0.5 0.5 0.5 0.5 0.5 0.5 0.5 0.5 0.5 0.5 0.5 0.5 0.5 0.5 0.5 0.5 0.5 0.5 0.5 0.5 0.5 0.5 0.5 0.5 0.5 0.5 0.5 0.5 0.5 0.5 0.5 0.5 0.5 0.5 0.5 0.5 0.5 0.5 0.5 0.5 0.5 0.5 0.5 0.5 0.5 0.5 0.5 0.5 0.5 0.5 0.5 0.5 0.5 0.5 0.5 0.5 0.5 0.5 0.228091 0.771909 0.65722 0.34278 0.716987 0.28301299999999996 0.856112 0.14388800000000002 0.5 0.5 0.5 0.5 0.5 0.5 0.5 0.5 0.148394 0.851606 0.104371 0.895629 0.568433 0.43156700000000003 0.612695 0.387305 0.5 0.5 0.5 0.5 0.5 0.5 0.5 0.5 0.5 0.5 0.5 0.5 0.5 0.5 0.5 0.5 0.255407 0.7445930000000001 0.710615 0.289385 0.875783 0.12421700000000002 0.453055 0.546945 0.5 0.5 0.5 0.5 0.5 0.5 0.5 0.5 0.5 0.5 0.5 0.5 0.5 0.5 0.5 0.5 0.5 0.5 0.5 0.5 0.5 0.5 0.5 0.5 0.5 0.5 0.5 0.5 0.5 0.5 0.5 0.5 0.5 0.5 0.5 0.5 0.5 0.5 0.5 0.5 0.5 0.5 0.5 0.5 0.5 0.5 0.5 0.5 0.872972 0.12702800000000003 0.218452 0.781548 0.761063 0.23893699999999995 0.450464 0.549536 0.5 0.5 0.5 0.5 0.5 0.5 0.5 0.5 0.5 0.5 0.5 0.5 0.5 0.5 0.5 0.5 0.5 0.5 0.5 0.5 0.5 0.5 0.5 0.5 0.5 0.5 0.5 0.5 0.354028 0.645972 0.3645 0.6355 0.0245743 0.9754257 0.490711 0.509289 0.5 0.5 0.5 0.5 0.5 0.5 0.5 0.5 0.5 0.5 0.5 0.5 0.5 0.5 0.5 0.5 0.648887 0.351113 0.947707 0.052293000000000034 0.74418 0.25582000000000005 0.943747 0.056253 0.5 0.5 0.5 0.5 0.5 0.5 0.5 0.5 0.5 0.5 0.5 0.5 0.5 0.5 0.5 0.5 0.5 0.5 0.5 0.5 0.5 0.5 0.5 0.5 0.903687 0.09631299999999998 0.00427361 0.99572639 0.407809 0.592191 0.889744 0.11025600000000002 0.5 0.5 0.5 0.5 0.5 0.5 0.5 0.5 0.5 0.5 0.5 0.5 0.5 0.5 0.5 0.5 0.5 0.5 0.5 0.5 0.5 0.5 0.5 0.5 0.5 0.5 0.5 0.5 0.5 0.5 0.5 0.5 0.5 0.5 0.5 0.5 0.5 0.5 0.5 0.5 0.5 0.5 0.5 0.5 0.5 0.5 0.5 0.5 0.5 0.5 0.5 0.5 0.5 0.5 0.5 0.5 0.5 0.5 0.5 0.5 0.5 0.5 0.5 0.5 0.5 0.5 0.5 0.5 0.5 0.5 0.5 0.5 0.5 0.5 0.5 0.5 0.62382 0.37617999999999996 0.523586 0.476414 0.171456 0.828544 0.893316 0.106684 0.5 0.5 0.5 0.5 0.5 0.5 0.5 0.5 0.5 0.5 0.5 0.5 0.5 0.5 0.5 0.5 0.5 0.5 0.5 0.5 0.5 0.5 0.5 0.5 0.5 0.5 0.5 0.5 0.5 0.5 0.5 0.5 0.5 0.5 0.5 0.5 0.5 0.5 0.5 0.5 0.5 0.5 0.5 0.5 0.5 0.5 0.5 0.5 0.5 0.5 0.5 0.5 0.5 0.5 0.5 0.5 0.5 0.5 0.5 0.5 0.5 0.5 0.5 0.5 0.5 0.5 0.5 0.5 0.5 0.5 0.5 0.5 0.5 0.5 0.5 0.5 0.5 0.5 0.5 0.5 0.5 0.5 0.5 0.5 0.5 0.5 0.5 0.5 0.5 0.5 0.5 0.5 0.5 0.5 0.5 0.5 0.5 0.5 0.5 0.5 0.5 0.5 0.5 0.5 0.5 0.5 0.5 0.5 0.5 0.5 0.5 0.5 0.5 0.5 0.5 0.5 0.5 0.5 0.5 0.5 0.5 0.5 0.5 0.5 0.5 0.5 0.5 0.5 0.5 0.5 0.5 0.5 0.5 0.5 0.5 0.5 0.5 0.5 0.5 0.5 0.5 0.5 0.5 0.5 0.5 0.5 0.5 0.5 0.5 0.5 0.5 0.5 0.5 0.5 0.5 0.5 0.5 0.5 0.5 0.5 0.5 0.5 0.5 0.5 0.5 0.5 0.5 0.5 0.5 0.5 0.5 0.5 0.5 0.5 0.5 0.5 0.5 0.5 0.5 0.5 0.359634 0.640366 0.825556 0.17444400000000004 0.335758 0.664242 0.424017 0.575983 0.5 0.5 0.5 0.5 0.5 0.5 0.5 0.5 0.5 0.5 0.5 0.5 0.5 0.5 0.5 0.5 0.5 0.5 0.5 0.5 0.5 0.5 0.5 0.5 0.5 0.5 0.5 0.5 0.5 0.5 0.5 0.5 0.0433443 0.9566557 0.442168 0.557832 0.886651 0.11334900000000003 0.449023 0.550977 0.5 0.5 0.5 0.5 0.5 0.5 0.5 0.5 0.5 0.5 0.5 0.5 0.5 0.5 0.5 0.5 0.5 0.5 0.5 0.5 0.535118 0.464882 0.602018 0.39798199999999995 0.0883826 0.9116174 0.583282 0.41671800000000003 0.5 0.5 0.5 0.5 0.5 0.5 0.5 0.5 0.5 0.5 0.5 0.5 0.5 0.5 0.5 0.5 0.5 0.5 0.5 0.5 0.5 0.5 0.5 0.5 0.5 0.5 0.5 0.5 0.5 0.5 0.5 0.5 0.5 0.5 0.5 0.5 0.5 0.5 0.5 0.5 0.5 0.5 0.5 0.5 0.5 0.5 0.5 0.5 0.658385 0.341615 0.856351 0.14364900000000003 0.900744 0.09925600000000001 0.406213 0.5937870000000001 0.5 0.5 0.5 0.5 0.5 0.5 0.5 0.5 0.5 0.5 0.5 0.5 0.5 0.5 0.5 0.5 0.5 0.5 0.5 0.5 0.5 0.5 0.5 0.5 0.5 0.5 0.5 0.5 0.5 0.5 0.5 0.5 0.5 0.5 0.5 0.5 0.5 0.5 0.5 0.5 0.5 0.5 0.5 0.5 0.5 0.5 0.5 0.5 0.5 0.5 0.5 0.5 0.5 0.5 0.5 0.5 0.5 0.5 0.5 0.5 0.5 0.5 0.5 0.5
-1 2 0
1 -2 0
-2 -292 3 0
-2 292 -3 0
2 -293 3 0
2 293 -3 0
-3 -4 0
3 4 0
-4 -5 0
4 5 0
-5 6 0
5 -6 0
-6 -7 0
6 7 0
-7 -8 0
7 8 0
-8 -9 0
8 9 0
-9 10 0
9 -10 0
-10 11 0
10 -11 0
-11 -310 12 0
-11 310 -12 0
11 -311 12 0
11 311 -12 0
-12 -13 0
12 13 0
-13 14 0
13 -14 0
-14 -15 0
14 15 0
-15 -16 0
15 16 0
-16 -17 0
16 17 0
-1 18 0
1 -18 0
-18 -2 -19 0
-18 2 19 0
18 -2 19 0
18 2 19 0
-19 -3 -20 0
-19 3 -20 0
19 -3 20 0
19 3 -20 0
-20 -4 -21 0
-20 4 21 0
20 -4 -21 0
20 4 21 0
-21 -5 -22 0
-21 5 22 0
21 -5 -22 0
21 5 22 0
-22 -6 -23 0
-22 6 -23 0
22 -6 23 0
22 6 -23 0
-23 -7 -344 24 0
-23 -7 344 -24 0
-23 7 -345 24 0
-23 7 345 -24 0
23 -7 -346 24 0
23 -7 346 -24 0
23 7 -347 24 0
23 7 347 -24 0
-24 -8 25 0
-24 8 -25 0
24 -8 -25 0
24 8 -25 0
-25 -9 26 0
-25 9 -26 0
25 -9 -26 0
25 9 -26 0
-26 -10 27 0
-26 10 -27 0
26 -10 27 0
26 10 27 0
-27 -11 28 0
-27 11 28 0
27 -11 -28 0
27 11 -28 0
-28 -12 -29 0
-28 12 -29 0
28 -12 -29 0
28 12 29 0
-29 -13 -30 0
-29 13 30 0
29 -13 -30 0
29 13 -30 0
-30 -14 -31 0
-30 14 31 0
30 -14 31 0
30 14 -31 0
-31 -15 32 0
-31 15 32 0
31 -15 -32 0
31 15 32 0
-32 -16 -380 33 0
-32 -16 380 -33 0
-32 16 -381 33 0
-32 16 381 -33 0
32 -16 -382 33 0
32 -16 382 -33 0
32 16 -383 33 0
32 16 383 -33 0
-33 -17 -34 0
-33 17 34 0
33 -17 -34 0
33 17 -34 0
-18 -35 0
18 35 0
-35 -19 36 0
-35 19 -36 0
35 -19 -36 0
35 19 -36 0
-36 -20 37 0
-36 20 -37 0
36 -20 -37 0
36 20 -37 0
-37 -21 38 0
-37 21 -38 0
37 -21 38 0
37 21 38 0
-38 -22 39 0
-38 22 -39 0
38 -22 -39 0
38 22 39 0
-39 -23 40 0
-39 23 40 0
39 -23 -40 0
39 23 40 0
-40 -24 41 0
-40 24 41 0
40 -24 -41 0
40 24 41 0
-41 -25 42 0
-41 25 -42 0
41 -25 -42 0
41 25 -42 0
-42 -26 -43 0
-42 26 43 0
42 -26 43 0
42 26 43 0
-43 -27 -44 0
-43 27 -44 0
43 -27 44 0
43 27 44 0
-44 -28 -45 0
-44 28 -45 0
44 -28 45 0
44 28 -45 0
-45 -29 -46 0
-45 29 46 0
45 -29 46 0
45 29 46 0
-46 -30 -47 0
-46 30 -47 0
46 -30 47 0
46 30 -47 0
-47 -31 48 0
-47 31 -48 0
47 -31 -48 0
47 31 48 0
-48 -32 49 0
-48 32 49 0
48 -32 49 0
48 32 -49 0
-49 -33 -50 0
-49 33 50 0
49 -33 -50 0
49 33 50 0
-50 -34 51 0
-50 34 -51 0
50 -34 -51 0
50 34 -51 0
-35 52 0
35 -52 0
-52 -36 53 0
-52 36 53 0
52 -36 53 0
52 36 -53 0
-53 -37 54 0
-53 37 54 0
53 -37 54 0
53 37 -54 0
-54 -38 55 0
-54 38 -55 0
54 -38 55 0
54 38 -55 0
-55 -39 -56 0
-55 39 56 0
55 -39 -56 0
55 39 56 0
-56 -40 57 0
-56 40 57 0
56 -40 57 0
56 40 -57 0
-57 -41 -476 58 0
-57 -41 476 -58 0
-57 41 -477 58 0
-57 41 477 -58 0
57 -41 -478 58 0
57 -41 478 -58 0
57 41 -479 58 0
57 41 479 -58 0
-58 -42 -59 0
-58 42 -59 0
58 -42 59 0
58 42 59 0
-59 -43 -484 60 0
-59 -43 484 -60 0
-59 43 -485 60 0
-59 43 485 -60 0
59 -43 -486 60 0
59 -43 486 -60 0
59 43 -487 60 0
59 43 487 -60 0
-60 -44 61 0
-60 44 61 0
60 -44 61 0
60 44 -61 0
-61 -45 62 0
-61 45 62 0
61 -45 62 0
61 45 -62 0
-62 -46 -63 0
-62 46 63 0
62 -46 63 0
62 46 63 0
-63 -47 -64 0
-63 47 -64 0
63 -47 -64 0
63 47 64 0
-64 -48 65 0
-64 48 -65 0
64 -48 65 0
64 48 -65 0
-65 -49 66 0
-65 49 66 0
65 -49 -66 0
65 49 66 0
-66 -50 67 0
-66 50 67 0
66 -50 -67 0
66 50 -67 0
-67 -51 68 0
-67 51 -68 0
67 -51 68 0
67 51 68 0
-52 69 0
52 -69 0
-69 -53 70 0
-69 53 -70 0
69 -53 -70 0
69 53 -70 0
-70 -54 71 0
-70 54 71 0
70 -54 -71 0
70 54 -71 0
-71 -55 72 0
-71 55 -72 0
71 -55 -72 0
71 55 72 0
-72 -56 -73 0
-72 56 -73 0
72 -56 -73 0
72 56 73 0
-73 -57 -74 0
-73 57 74 0
73 -57 -74 0
73 57 -74 0
-74 -58 75 0
-74 58 75 0
74 -58 -75 0
74 58 75 0
-75 -59 76 0
-75 59 76 0
75 -59 -76 0
75 59 76 0
-76 -60 77 0
-76 60 -77 0
76 -60 -77 0
76 60 77 0
-77 -61 78 0
-77 61 -78 0
77 -61 -78 0
77 61 -78 0
-78 -62 -79 0
-78 62 79 0
78 -62 -79 0
78 62 79 0
-79 -63 80 0
-79 63 80 0
79 -63 -80 0
79 63 80 0
-80 -64 -81 0
-80 64 -81 0
80 -64 81 0
80 64 81 0
-81 -65 82 0
-81 65 -82 0
81 -65 -82 0
81 65 82 0
-82 -66 83 0
-82 66 83 0
82 -66 -83 0
82 66 83 0
-83 -67 -84 0
-83 67 84 0
83 -67 -84 0
83 67 -84 0
-84 -68 -85 0
-84 68 -85 0
84 -68 -85 0
84 68 85 0
-69 86 0
69 -86 0
-86 -70 -87 0
-86 70 87 0
86 -70 87 0
86 70 -87 0
-87 -71 88 0
-87 71 88 0
87 -71 88 0
87 71 -88 0
-88 -72 89 0
-88 72 -89 0
88 -72 89 0
88 72 89 0
-89 -73 -90 0
-89 73 90 0
89 -73 90 0
89 73 90 0
-90 -74 -91 0
-90 74 91 0
90 -74 91 0
90 74 -91 0
-91 -75 92 0
-91 75 -92 0
91 -75 92 0
91 75 -92 0
-92 -76 93 0
-92 76 93 0
92 -76 93 0
92 76 -93 0
-93 -77 -94 0
-93 77 94 0
93 -77 -94 0
93 77 94 0
-94 -78 -620 95 0
-94 -78 620 -95 0
-94 78 -621 95 0
-94 78 621 -95 0
94 -78 -622 95 0
94 -78 622 -95 0
94 78 -623 95 0
94 78 623 -95 0
-95 -79 -624 96 0
-95 -79 624 -96 0
-95 79 -625 96 0
-95 79 625 -96 0
95 -79 -626 96 0
95 -79 626 -96 0
95 79 -627 96 0
95 79 627 -96 0
-96 -80 -628 97 0
-96 -80 628 -97 0
-96 80 -629 97 0
-96 80 629 -97 0
96 -80 -630 97 0
96 -80 630 -97 0
96 80 -631 97 0
96 80 631 -97 0
-97 -81 -98 0
-97 81 -98 0
97 -81 98 0
97 81 98 0
-98 -82 -99 0
-98 82 -99 0
98 -82 99 0
98 82 99 0
-99 -83 -100 0
-99 83 -100 0
99 -83 -100 0
99 83 100 0
-100 -84 101 0
-100 84 -101 0
100 -84 -101 0
100 84 -101 0
-101 -85 -102 0
-101 85 102 0
101 -85 102 0
101 85 102 0
-86 103 0
86 -103 0
-103 -87 -104 0
-103 87 104 0
103 -87 -104 0
103 87 -104 0
-104 -88 105 0
-104 88 105 0
104 -88 -105 0
104 88 -105 0
-105 -89 -106 0
-105 89 106 0
105 -89 106 0
105 89 -106 0
-106 -90 -107 0
-106 90 -107 0
106 -90 -107 0
106 90 107 0
-107 -91 -108 0
-107 91 108 0
107 -91 -108 0
107 91 -108 0
-108 -92 109 0
-108 92 109 0
108 -92 -109 0
108 92 -109 0
-109 -93 110 0
-109 93 -110 0
109 -93 -110 0
109 93 110 0
-110 -94 -111 0
-110 94 -111 0
110 -94 111 0
110 94 -111 0
-111 -95 -112 0
-111 95 -112 0
111 -95 -112 0
111 95 112 0
-112 -96 113 0
-112 96 113 0
112 -96 -113 0
112 96 113 0
-113 -97 114 0
-113 97 -114 0
113 -97 -114 0
113 97 114 0
-114 -98 115 0
-114 98 -115 0
114 -98 115 0
114 98 -115 0
-115 -99 -116 0
-115 99 -116 0
115 -99 116 0
115 99 -116 0
-116 -100 117 0
-116 100 -117 0
116 -100 117 0
116 100 117 0
-117 -101 -710 118 0
-117 -101 710 -118 0
-117 101 -711 118 0
-117 101 711 -118 0
117 -101 -712 118 0
117 -101 712 -118 0
117 101 -713 118 0
117 101 713 -118 0
-118 -102 119 0
-118 102 119 0
118 -102 -119 0
118 102 -119 0
-103 120 0
103 -120 0
-120 -104 -121 0
-120 104 121 0
120 -104 121 0
120 104 121 0
-121 -105 -122 0
-121 105 -122 0
121 -105 122 0
121 105 122 0
-122 -106 123 0
-122 106 -123 0
122 -106 123 0
122 106 123 0
-123 -107 124 0
-123 107 -124 0
123 -107 124 0
123 107 124 0
-124 -108 125 0
-124 108 -125 0
124 -108 125 0
124 108 -125 0
-125 -109 -740 126 0
-125 -109 740 -126 0
-125 109 -741 126 0
-125 109 741 -126 0
125 -109 -742 126 0
125 -109 742 -126 0
125 109 -743 126 0
125 109 743 -126 0
-126 -110 -127 0
-126 110 127 0
126 -110 127 0
126 110 127 0
-127 -111 -128 0
-127 111 128 0
127 -111 -128 0
127 111 128 0
-128 -112 129 0
-128 112 129 0
128 -112 129 0
128 112 -129 0
-129 -113 130 0
-129 113 -130 0
129 -113 130 0
129 113 -130 0
-130 -114 -131 0
-130 114 -131 0
130 -114 131 0
130 114 -131 0
-131 -115 -132 0
-131 115 132 0
131 -115 132 0
131 115 132 0
-132 -116 -768 133 0
-132 -116 768 -133 0
-132 116 -769 133 0
-132 116 769 -133 0
132 -116 -770 133 0
132 -116 770 -133 0
132 116 -771 133 0
132 116 771 -133 0
-133 -117 134 0
-133 117 -134 0
133 -117 134 0
133 117 134 0
-134 -118 135 0
-134 118 -135 0
134 -118 135 0
134 118 135 0
-135 -119 -136 0
-135 119 136 0
135 -119 136 0
135 119 136 0
-120 -137 0
120 137 0
-137 -121 -138 0
-137 121 -138 0
137 -121 138 0
137 121 138 0
-138 -122 139 0
-138 122 -139 0
138 -122 139 0
138 122 -139 0
-139 -123 -140 0
-139 123 140 0
139 -123 140 0
139 123 140 0
-140 -124 141 0
-140 124 -141 0
140 -124 -141 0
140 124 -141 0
-141 -125 -802 142 0
-141 -125 802 -142 0
-141 125 -803 142 0
-141 125 803 -142 0
141 -125 -804 142 0
141 -125 804 -142 0
141 125 -805 142 0
141 125 805 -142 0
-142 -126 -143 0
-142 126 -143 0
142 -126 143 0
142 126 143 0
-143 -127 -144 0
-143 127 144 0
143 -127 -144 0
143 127 144 0
-144 -128 145 0
-144 128 -145 0
144 -128 -145 0
144 128 -145 0
-145 -129 146 0
-145 129 -146 0
145 -129 -146 0
145 129 -146 0
-146 -130 -822 147 0
-146 -130 822 -147 0
-146 130 -823 147 0
-146 130 823 -147 0
146 -130 -824 147 0
146 -130 824 -147 0
146 130 -825 147 0
146 130 825 -147 0
-147 -131 148 0
-147 131 148 0
147 -131 148 0
147 131 -148 0
-148 -132 149 0
-148 132 -149 0
148 -132 -149 0
148 132 -149 0
-149 -133 -150 0
-149 133 -150 0
149 -133 150 0
149 133 -150 0
-150 -134 151 0
-150 134 -151 0
150 -134 -151 0
150 134 151 0
-151 -135 152 0
-151 135 152 0
151 -135 -152 0
151 135 -152 0
-152 -136 153 0
-152 136 -153 0
152 -136 153 0
152 136 153 0
-137 -154 0
137 154 0
-154 -138 155 0
-154 138 -155 0
154 -138 -155 0
154 138 155 0
-155 -139 -156 0
-155 139 156 0
155 -139 -156 0
155 139 -156 0
-156 -140 157 0
-156 140 -157 0
156 -140 -157 0
156 140 157 0
-157 -141 -158 0
-157 141 158 0
157 -141 -158 0
157 141 -158 0
-158 -142 -159 0
-158 142 159 0
158 -142 159 0
158 142 159 0
-159 -143 160 0
-159 143 -160 0
159 -143 160 0
159 143 160 0
-160 -144 161 0
-160 144 -161 0
160 -144 161 0
160 144 -161 0
-161 -145 -162 0
-161 145 162 0
161 -145 162 0
161 145 -162 0
-162 -146 -884 163 0
-162 -146 884 -163 0
-162 146 -885 163 0
-162 146 885 -163 0
162 -146 -886 163 0
162 -146 886 -163 0
162 146 -887 163 0
162 146 887 -163 0
-163 -147 -164 0
-163 147 -164 0
163 -147 164 0
163 147 -164 0
-164 -148 -165 0
-164 148 -165 0
164 -148 165 0
164 148 -165 0
-165 -149 -896 166 0
-165 -149 896 -166 0
-165 149 -897 166 0
-165 149 897 -166 0
165 -149 -898 166 0
165 -149 898 -166 0
165 149 -899 166 0
165 149 899 -166 0
-166 -150 167 0
-166 150 167 0
166 -150 -167 0
166 150 -167 0
-167 -151 168 0
-167 151 -168 0
167 -151 -168 0
167 151 168 0
-168 -152 -169 0
-168 152 169 0
168 -152 -169 0
168 152 169 0
-169 -153 -170 0
-169 153 170 0
169 -153 170 0
169 153 170 0
-154 171 0
154 -171 0
-171 -155 172 0
-171 155 -172 0
171 -155 -172 0
171 155 172 0
-172 -156 173 0
-172 156 173 0
172 -156 -173 0
172 156 173 0
-173 -157 174 0
-173 157 -174 0
173 -157 -174 0
173 157 -174 0
-174 -158 175 0
-174 158 175 0
174 -158 -175 0
174 158 -175 0
-175 -159 -176 0
-175 159 -176 0
175 -159 -176 0
175 159 176 0
-176 -160 -177 0
-176 160 177 0
176 -160 -177 0
176 160 177 0
-177 -161 -178 0
-177 161 178 0
177 -161 -178 0
177 161 -178 0
-178 -162 -179 0
-178 162 179 0
178 -162 179 0
178 162 179 0
-179 -163 180 0
-179 163 -180 0
179 -163 -180 0
179 163 180 0
-180 -164 181 0
-180 164 -181 0
180 -164 -181 0
180 164 -181 0
-181 -165 -958 182 0
-181 -165 958 -182 0
-181 165 -959 182 0
-181 165 959 -182 0
181 -165 -960 182 0
181 -165 960 -182 0
181 165 -961 182 0
181 165 961 -182 0
-182 -166 183 0
-182 166 183 0
182 -166 183 0
182 166 -183 0
-183 -167 -184 0
-183 167 184 0
183 -167 184 0
183 167 -184 0
-184 -168 -185 0
-184 168 185 0
184 -168 -185 0
184 168 -185 0
-185 -169 186 0
-185 169 186 0
185 -169 186 0
185 169 -186 0
-186 -170 -187 0
-186 170 -187 0
186 -170 187 0
186 170 -187 0
-171 -188 0
171 188 0
-188 -172 -189 0
-188 172 189 0
188 -172 -189 0
188 172 -189 0
-189 -173 -988 190 0
-189 -173 988 -190 0
-189 173 -989 190 0
-189 173 989 -190 0
189 -173 -990 190 0
189 -173 990 -190 0
189 173 -991 190 0
189 173 991 -190 0
-190 -174 -992 191 0
-190 -174 992 -191 0
-190 174 -993 191 0
-190 174 993 -191 0
190 -174 -994 191 0
190 -174 994 -191 0
190 174 -995 191 0
190 174 995 -191 0
-191 -175 192 0
-191 175 192 0
191 -175 -192 0
191 175 -192 0
-192 -176 193 0
-192 176 -193 0
192 -176 193 0
192 176 193 0
-193 -177 194 0
-193 177 -194 0
193 -177 194 0
193 177 194 0
-194 -178 195 0
-194 178 195 0
194 -178 -195 0
194 178 195 0
-195 -179 -196 0
-195 179 -196 0
195 -179 -196 0
195 179 196 0
-196 -180 -1016 197 0
-196 -180 1016 -197 0
-196 180 -1017 197 0
-196 180 1017 -197 0
196 -180 -1018 197 0
196 -180 1018 -197 0
196 180 -1019 197 0
196 180 1019 -197 0
-197 -181 -198 0
-197 181 198 0
197 -181 -198 0
197 181 -198 0
-198 -182 -199 0
-198 182 -199 0
198 -182 199 0
198 182 199 0
-199 -183 -200 0
-199 183 200 0
199 -183 200 0
199 183 200 0
-200 -184 201 0
-200 184 -201 0
200 -184 201 0
200 184 -201 0
-201 -185 202 0
-201 185 202 0
201 -185 -202 0
201 185 202 0
-202 -186 203 0
-202 186 -203 0
202 -186 203 0
202 186 203 0
-203 -187 204 0
-203 187 204 0
203 -187 -204 0
203 187 -204 0
-188 -205 0
188 205 0
-205 -189 -1050 206 0
-205 -189 1050 -206 0
-205 189 -1051 206 0
-205 189 1051 -206 0
205 -189 -1052 206 0
205 -189 1052 -206 0
205 189 -1053 206 0
205 189 1053 -206 0
-206 -190 207 0
-206 190 -207 0
206 -190 207 0
206 190 207 0
-207 -191 -1058 208 0
-207 -191 1058 -208 0
-207 191 -1059 208 0
-207 191 1059 -208 0
207 -191 -1060 208 0
207 -191 1060 -208 0
207 191 -1061 208 0
207 191 1061 -208 0
-208 -192 209 0
-208 192 209 0
208 -192 -209 0
208 192 209 0
-209 -193 -210 0
-209 193 -210 0
209 -193 210 0
209 193 210 0
-210 -194 -1070 211 0
-210 -194 1070 -211 0
-210 194 -1071 211 0
-210 194 1071 -211 0
210 -194 -1072 211 0
210 -194 1072 -211 0
210 194 -1073 211 0
210 194 1073 -211 0
-211 -195 -212 0
-211 195 212 0
211 -195 -212 0
211 195 212 0
-212 -196 -213 0
-212 196 -213 0
212 -196 213 0
212 196 -213 0
-213 -197 -214 0
-213 197 -214 0
213 -197 214 0
213 197 -214 0
-214 -198 215 0
-214 198 -215 0
214 -198 215 0
214 198 215 0
-215 -199 -216 0
-215 199 216 0
215 -199 216 0
215 199 216 0
-216 -200 -217 0
-216 200 -217 0
216 -200 217 0
216 200 217 0
-217 -201 -1098 218 0
-217 -201 1098 -218 0
-217 201 -1099 218 0
-217 201 1099 -218 0
217 -201 -1100 218 0
217 -201 1100 -218 0
217 201 -1101 218 0
217 201 1101 -218 0
-218 -202 -219 0
-218 202 219 0
218 -202 -219 0
218 202 -219 0
-219 -203 220 0
-219 203 -220 0
219 -203 -220 0
219 203 220 0
-220 -204 -221 0
-220 204 221 0
220 -204 -221 0
220 204 221 0
-205 -222 0
205 222 0
-222 -206 -1116 223 0
-222 -206 1116 -223 0
-222 206 -1117 223 0
-222 206 1117 -223 0
222 -206 -1118 223 0
222 -206 1118 -223 0
222 206 -1119 223 0
222 206 1119 -223 0
-223 -207 -224 0
-223 207 -224 0
223 -207 224 0
223 207 224 0
-224 -208 -225 0
-224 208 225 0
224 -208 225 0
224 208 -225 0
-225 -209 -1128 226 0
-225 -209 1128 -226 0
-225 209 -1129 226 0
-225 209 1129 -226 0
225 -209 -1130 226 0
225 -209 1130 -226 0
225 209 -1131 226 0
225 209 1131 -226 0
-226 -210 227 0
-226 210 -227 0
226 -210 227 0
226 210 227 0
-227 -211 -228 0
-227 211 228 0
227 -211 -228 0
227 211 -228 0
-228 -212 229 0
-228 212 229 0
228 -212 229 0
228 212 -229 0
-229 -213 -1144 230 0
-229 -213 1144 -230 0
-229 213 -1145 230 0
-229 213 1145 -230 0
229 -213 -1146 230 0
229 -213 1146 -230 0
229 213 -1147 230 0
229 213 1147 -230 0
-230 -214 231 0
-230 214 231 0
230 -214 231 0
230 214 -231 0
-231 -215 -232 0
-231 215 -232 0
231 -215 232 0
231 215 232 0
-232 -216 233 0
-232 216 -233 0
232 -216 233 0
232 216 -233 0
-233 -217 234 0
-233 217 -234 0
233 -217 234 0
233 217 234 0
-234 -218 -235 0
-234 218 235 0
234 -218 235 0
234 218 235 0
-235 -219 -236 0
-235 219 -236 0
235 -219 236 0
235 219 236 0
-236 -220 237 0
-236 220 -237 0
236 -220 -237 0
236 220 -237 0
-237 -221 238 0
-237 221 -238 0
237 -221 -238 0
237 221 -238 0
-222 239 0
222 -239 0
-239 -223 240 0
-239 223 -240 0
239 -223 240 0
239 223 240 0
-240 -224 -1186 241 0
-240 -224 1186 -241 0
-240 224 -1187 241 0
-240 224 1187 -241 0
240 -224 -1188 241 0
240 -224 1188 -241 0
240 224 -1189 241 0
240 224 1189 -241 0
-241 -225 -242 0
-241 225 242 0
241 -225 -242 0
241 225 242 0
-242 -226 -243 0
-242 226 -243 0
242 -226 -243 0
242 226 243 0
-243 -227 -244 0
-243 227 244 0
243 -227 -244 0
243 227 -244 0
-244 -228 245 0
-244 228 -245 0
244 -228 245 0
244 228 -245 0
-245 -229 -246 0
-245 229 -246 0
245 -229 246 0
245 229 -246 0
-246 -230 247 0
-246 230 247 0
246 -230 247 0
246 230 -247 0
-247 -231 248 0
-247 231 -248 0
247 -231 -248 0
247 231 248 0
-248 -232 249 0
-248 232 -249 0
248 -232 249 0
248 232 249 0
-249 -233 250 0
-249 233 250 0
249 -233 250 0
249 233 -250 0
-250 -234 251 0
-250 234 251 0
250 -234 251 0
250 234 -251 0
-251 -235 252 0
-251 235 252 0
251 -235 252 0
251 235 -252 0
-252 -236 -253 0
-252 236 253 0
252 -236 -253 0
252 236 253 0
-253 -237 -254 0
-253 237 254 0
253 -237 254 0
253 237 254 0
-254 -238 -255 0
-254 238 -255 0
254 -238 -255 0
254 238 255 0
-239 256 0
239 -256 0
-256 -240 257 0
-256 240 257 0
256 -240 257 0
256 240 -257 0
-257 -241 258 0
-257 241 258 0
257 -241 -258 0
257 241 -258 0
-258 -242 259 0
-258 242 -259 0
258 -242 259 0
258 242 -259 0
-259 -243 -260 0
-259 243 260 0
259 -243 260 0
259 243 260 0
-260 -244 -261 0
-260 244 261 0
260 -244 261 0
260 244 261 0
-261 -245 262 0
-261 245 -262 0
261 -245 262 0
261 245 262 0
-262 -246 -263 0
-262 246 -263 0
262 -246 -263 0
262 246 263 0
-263 -247 264 0
-263 247 -264 0
263 -247 264 0
263 247 264 0
-264 -248 -1280 265 0
-264 -248 1280 -265 0
-264 248 -1281 265 0
-264 248 1281 -265 0
264 -248 -1282 265 0
264 -248 1282 -265 0
264 248 -1283 265 0
264 248 1283 -265 0
-265 -249 -266 0
-265 249 -266 0
265 -249 266 0
265 249 266 0
-266 -250 -267 0
-266 250 -267 0
266 -250 267 0
266 250 -267 0
-267 -251 268 0
-267 251 268 0
267 -251 268 0
267 251 -268 0
-268 -252 -269 0
-268 252 269 0
268 -252 269 0
268 252 269 0
-269 -253 -1300 270 0
-269 -253 1300 -270 0
-269 253 -1301 270 0
-269 253 1301 -270 0
269 -253 -1302 270 0
269 -253 1302 -270 0
269 253 -1303 270 0
269 253 1303 -270 0
-270 -254 -271 0
-270 254 271 0
270 -254 -271 0
270 254 271 0
-271 -255 -272 0
-271 255 272 0
271 -255 -272 0
271 255 272 0
-256 -273 0
256 273 0
-273 -257 -1314 274 0
-273 -257 1314 -274 0
-273 257 -1315 274 0
-273 257 1315 -274 0
273 -257 -1316 274 0
273 -257 1316 -274 0
273 257 -1317 274 0
273 257 1317 -274 0
-274 -258 275 0
-274 258 275 0
274 -258 275 0
274 258 -275 0
-275 -259 -276 0
-275 259 276 0
275 -259 276 0
275 259 -276 0
-276 -260 277 0
-276 260 -277 0
276 -260 -277 0
276 260 277 0
-277 -261 278 0
-277 261 -278 0
277 -261 278 0
277 261 278 0
-278 -262 279 0
-278 262 279 0
278 -262 -279 0
278 262 -279 0
-279 -263 280 0
-279 263 -280 0
279 -263 280 0
279 263 280 0
-280 -264 -1342 281 0
-280 -264 1342 -281 0
-280 264 -1343 281 0
-280 264 1343 -281 0
280 -264 -1344 281 0
280 -264 1344 -281 0
280 264 -1345 281 0
280 264 1345 -281 0
-281 -265 282 0
-281 265 282 0
281 -265 -282 0
281 265 282 0
-282 -266 283 0
-282 266 -283 0
282 -266 -283 0
282 266 -283 0
-283 -267 -284 0
-283 267 284 0
283 -267 284 0
283 267 284 0
-284 -268 -285 0
-284 268 285 0
284 -268 285 0
284 268 285 0
-285 -269 286 0
-285 269 -286 0
285 -269 286 0
285 269 -286 0
-286 -270 287 0
-286 270 -287 0
286 -270 287 0
286 270 -287 0
-287 -271 -288 0
-287 271 288 0
287 -271 288 0
287 271 288 0
-288 -272 -289 0
-288 272 289 0
288 -272 289 0
288 272 -289 0
289 0
