data/benchmarks/bayes/90-17-7-q.gr
p tw 1377 1168
36 53
180 1019
67 68
214 230
247 264
99 100
280 1344
96 113
18 35
24 344
159 160
147 823
8 9
188 205
40 41
21 37
251 252
100 101
132 133
173 988
96 625
129 146
192 193
10 27
41 42
221 238
73 74
149 896
284 285
222 1118
141 803
133 134
213 1146
162 179
14 15
125 804
225 226
43 60
43 487
74 75
208 1058
225 1129
106 107
126 741
103 120
254 271
166 167
23 347
15 16
195 212
47 48
226 227
258 259
226 1130
107 108
189 1053
88 104
136 153
181 960
218 1098
199 200
229 1144
269 286
180 196
48 49
228 245
165 961
29 45
80 81
77 94
259 260
272 288
140 141
205 1052
121 137
96 629
169 186
273 1317
232 233
213 229
81 82
261 278
62 78
110 127
173 174
243 260
146 822
22 23
202 219
269 1301
3 19
2 292
51 68
233 234
265 266
264 1344
80 629
114 115
246 262
95 111
143 160
155 171
206 207
187 203
55 56
3 293
235 252
36 52
266 267
206 1119
247 263
58 476
270 1302
280 1343
96 112
147 148
95 623
128 144
147 822
207 208
132 770
239 240
220 236
211 1072
268 285
96 624
129 145
161 177
133 771
10 26
240 241
221 237
253 269
102 118
25 42
181 182
213 1145
162 178
194 210
43 59
273 274
225 1128
254 270
126 740
57 479
191 995
135 151
23 346
214 215
17 34
195 211
227 243
76 92
109 126
189 1052
136 152
181 959
95 627
168 184
21 22
201 218
253 1302
50 67
165 960
228 244
260 276
77 93
113 114
142 159
169 185
205 206
273 1316
54 55
83 100
261 277
110 126
146 147
175 192
217 1101
24 41
118 713
202 218
269 1300
51 67
87 88
264 1343
84 101
116 133
143 159
94 621
179 180
176 193
28 29
190 994
9 25
33 382
57 74
88 89
210 1070
206 1118
120 121
235 251
117 134
149 166
95 622
180 181
218 1101
29 30
209 226
132 769
61 62
58 75
42 58
209 1129
90 107
211 1071
121 122
265 1280
268 284
150 167
134 150
2 3
7 347
213 214
31 48
241 1188
62 63
242 259
94 95
91 108
75 91
123 140
154 155
3 4
163 887
183 200
35 36
213 1144
32 49
16 32
146 825
64 81
246 247
95 96
127 128
197 1019
124 141
108 124
57 478
5 22
190 989
23 345
36 37
207 1060
17 33
216 233
65 82
49 65
257 1317
97 114
191 1061
128 129
279 280
109 125
160 161
166 897
157 174
130 822
6 23
95 626
220 221
253 1301
201 217
69 70
249 266
50 66
101 102
98 115
82 98
142 805
161 162
125 743
142 158
10 11
190 207
39 56
23 39
253 254
234 250
83 99
131 148
194 195
175 191
43 44
116 770
217 1100
24 40
118 712
72 89
56 72
223 240
286 287
264 1342
135 136
267 283
116 132
164 181
94 620
176 192
227 228
190 993
76 77
208 224
256 273
33 381
57 73
287 288
168 169
149 165
197 214
30 46
132 768
209 225
241 257
209 1128
260 261
257 274
90 106
41 479
196 1018
97 630
150 166
7 346
182 198
31 47
241 1187
261 262
242 258
123 139
79 627
183 199
231 248
215 231
64 80
197 1018
124 140
156 172
9 10
5 21
190 988
207 1059
38 55
216 232
257 1316
248 264
264 281
281 1344
97 113
191 1060
130 147
210 1073
166 896
157 173
201 1101
189 205
42 43
253 1300
230 1146
268 269
71 88
249 265
142 804
134 135
60 487
265 1283
78 621
163 180
12 29
174 994
190 206
75 76
11 311
255 272
194 1070
104 121
131 147
16 17
206 1053
13 30
196 213
116 769
45 62
189 991
118 711
162 885
223 239
108 109
105 122
137 154
182 961
146 886
164 180
165 899
49 50
229 246
46 63
78 95
109 110
138 155
170 187
201 202
19 36
197 213
50 51
130 825
230 247
82 83
262 279
79 96
63 79
111 128
142 143
41 478
196 1017
97 629
171 188
23 24
203 220
7 345
4 20
20 37
52 69
234 235
83 84
264 1282
263 280
115 116
112 129
248 1283
117 711
144 161
175 176
223 1119
24 25
204 221
56 57
236 253
53 70
37 53
267 268
85 102
116 117
59 486
109 743
145 162
177 194
208 209
26 43
57 58
101 711
167 168
38 54
89 90
86 103
70 86
237 254
118 135
281 1343
149 150
191 1059
130 146
178 195
30 31
210 227
27 44
11 27
201 1100
241 242
90 91
16 380
200 201
71 87
230 1145
119 136
270 287
151 168
182 183
78 620
31 32
141 142
163 179
12 28
174 993
60 77
44 60
211 228
274 275
11 310
123 124
255 271
104 120
152 169
1 18
215 216
206 1052
196 212
64 65
174 175
116 768
45 61
189 990
93 110
162 884
224 1186
244 261
156 157
180 1018
182 960
5 6
185 202
146 885
165 898
248 249
229 245
97 98
78 94
126 143
189 190
170 186
32 383
148 149
218 235
19 35
274 1317
281 282
262 278
111 127
222 1117
222 223
141 802
203 219
264 1281
263 279
125 803
43 486
194 1073
117 710
144 160
122 123
240 1189
223 1118
248 1282
252 269
236 252
85 101
226 1129
59 485
177 193
26 42
59 76
24 347
101 710
237 253
269 285
118 134
205 1051
210 226
63 64
173 991
96 628
230 1144
92 109
270 286
151 167
4 5
184 201
149 899
33 50
211 227
243 259
125 142
80 628
208 1061
37 38
217 234
34 51
66 83
244 260
270 1301
3 292
180 1017
158 175
280 1342
7 24
185 201
70 71
250 267
67 84
99 116
130 131
229 1147
159 176
11 12
191 208
40 57
218 234
251 268
100 117
133 770
16 383
132 149
163 164
192 209
222 1116
44 45
224 241
41 58
25 41
73 90
125 802
133 150
43 485
165 182
248 1281
196 197
14 31
155 156
225 242
191 994
74 91
288 289
106 123
224 1189
137 138
247 248
96 97
166 183
226 1128
18 19
198 215
15 32
189 1051
58 479
47 64
229 230
181 958
188 189
258 275
59 75
24 346
107 124
147 825
139 156
280 281
165 959
129 130
199 216
48 65
205 1050
262 263
80 97
173 990
96 627
111 112
92 108
273 1315
140 157
172 189
203 204
184 200
162 163
149 898
232 249
33 49
81 98
144 145
254 255
125 141
103 104
173 190
84 100
22 39
208 1060
225 1131
126 743
217 233
195 196
236 237
265 282
66 82
114 131
270 1300
177 178
158 174
206 1117
206 223
7 23
117 133
55 72
269 270
95 621
250 266
118 119
218 1100
228 229
99 115
77 78
147 164
58 74
210 211
211 1070
191 207
169 170
239 256
40 56
96 631
133 769
151 152
132 148
110 111
91 107
243 244
224 240
202 203
163 886
73 89
32 48
146 824
269 1303
43 484
165 181
143 144
14 30
80 631
57 477
191 993
235 236
23 344
106 122
65 81
198 214
189 1050
58 478
47 63
280 1345
6 22
95 625
24 345
139 155
165 958
98 114
21 38
125 742
80 96
96 626
113 130
39 55
273 1314
172 188
25 26
205 222
54 71
217 1099
213 1147
146 163
72 88
225 1130
208 1059
126 742
87 104
190 992
33 380
179 196
206 1116
28 45
95 620
120 137
218 1099
257 273
180 197
61 78
272 289
121 138
133 768
153 170
241 1186
2 19
213 230
79 626
94 111
163 885
231 247
84 85
146 823
154 171
2 293
217 218
35 52
197 1017
176 177
246 263
57 476
264 1345
95 112
207 1058
94 623
127 144
257 1315
264 280
117 118
187 204
210 1072
250 251
68 85
58 477
209 210
58 59
95 624
128 145
238 255
160 177
191 192
132 771
142 803
150 151
60 486
211 1073
209 1131
69 86
125 741
220 237
101 118
265 1282
242 243
113 129
91 92
161 178
271 288
224 225
183 184
253 270
54 70
32 33
102 119
212 229
13 29
217 1098
165 166
275 276
118 710
12 311
124 125
146 162
194 211
105 121
216 217
87 103
65 66
135 152
245 262
46 62
190 991
276 277
198 199
179 195
157 158
227 244
28 44
6 7
76 93
138 154
186 203
166 899
139 140
249 250
130 824
98 99
168 185
230 246
79 95
253 1303
41 477
190 191
196 1016
61 77
39 40
97 628
219 236
7 344
20 36
260 277
172 173
282 283
153 169
131 132
2 18
112 128
223 224
79 625
72 73
94 110
163 884
53 69
204 220
283 284
164 165
145 161
109 742
197 1016
193 210
256 257
94 622
127 143
257 1314
190 995
281 1342
9 26
33 383
191 1058
197 198
210 1071
68 84
178 194
27 43
201 1099
257 258
238 254
160 176
119 135
142 802
42 59
60 485
209 1130
265 1281
125 740
101 117
134 151
60 76
174 992
271 287
241 1189
152 168
75 92
231 232
206 1051
212 228
189 989
93 109
12 310
16 33
182 959
38 39
108 125
146 884
165 897
264 265
245 261
207 1061
190 990
126 142
49 66
8 25
186 202
32 382
166 898
71 72
274 1316
130 823
12 13
41 476
82 99
219 235
78 623
264 1280
104 105
23 40
194 1072
234 251
13 14
240 1188
223 1117
45 46
115 132
79 624
252 268
105 106
116 771
162 887
56 73
59 484
109 741
193 209
267 284
46 47
226 243
78 79
138 139
208 225
167 184
19 20
89 106
230 231
79 80
201 1098
259 276
30 47
171 172
241 258
20 21
60 484
200 217
52 53
196 1019
97 631
141 805
263 264
112 113
182 199
141 158
117 713
53 54
233 250
34 50
206 1050
189 988
145 146
215 232
174 191
180 1016
26 27
182 958
237 238
86 87
165 896
156 173
67 83
266 283
101 713
229 1146
178 179
248 265
281 1345
159 175
27 28
207 224
8 24
32 381
270 271
274 1315
251 267
189 206
100 116
148 165
16 382
230 1147
211 212
192 208
60 61
240 257
41 57
78 622
271 272
174 995
152 153
222 239
133 149
1 2
181 198
194 1071
212 213
248 1280
240 1187
223 1116
244 245
115 131
93 94
225 241
74 90
122 139
224 1188
185 186
162 886
166 182
214 231
109 740
15 31
245 246
226 242
277 278
146 887
258 274
126 127
107 123
147 824
186 187
167 183
218 219
89 105
199 215
48 64
278 279
259 275
173 989
140 156
63 80
219 220
200 216
149 897
232 248
222 1119
141 804
81 97
264 1283
4 21
141 157
125 805
173 189
22 38
117 712
252 253
233 249
265 281
114 130
37 54
193 194
174 190
206 222
226 1131
59 60
59 487
55 71
285 286
88 105
266 282
181 961
101 712
147 163
229 1145
70 87
29 46
207 223
32 380
92 93
274 1314
205 1053
11 28
96 630
148 164
16 381
184 185
33 34
62 79
240 256
125 126
44 61
269 1302
3 20
181 197
66 67
80 630
240 1186
191 992
122 138
158 159
224 1187
155 172
7 8
270 1303
